p cnf 22 83
1 3 5 7 9 11 13 15 17 19 21 0
2 4 6 8 10 12 14 16 18 20 22 0
-1 -2 0
-3 -4 0
-5 -6 0
-7 -8 0
-9 -10 0
-11 -12 0
-13 -14 0
-15 -16 0
-17 -18 0
-19 -20 0
-21 -22 0
-1 -6 0
-3 -8 0
-5 -8 0
-1 -10 0
-3 -10 0
-1 -12 0
-5 -12 0
-9 -12 0
-3 -14 0
-7 -14 0
-9 -14 0
-11 -14 0
-1 -16 0
-5 -16 0
-7 -16 0
-11 -16 0
-13 -16 0
-3 -18 0
-5 -18 0
-7 -18 0
-11 -18 0
-13 -18 0
-15 -18 0
-1 -20 0
-3 -20 0
-9 -20 0
-11 -20 0
-13 -20 0
-15 -20 0
-17 -20 0
-1 -22 0
-3 -22 0
-5 -22 0
-7 -22 0
-9 -22 0
-2 -5 0
-4 -7 0
-6 -7 0
-2 -9 0
-4 -9 0
-2 -11 0
-6 -11 0
-10 -11 0
-4 -13 0
-8 -13 0
-10 -13 0
-12 -13 0
-2 -15 0
-6 -15 0
-8 -15 0
-12 -15 0
-14 -15 0
-4 -17 0
-6 -17 0
-8 -17 0
-12 -17 0
-14 -17 0
-16 -17 0
-2 -19 0
-4 -19 0
-10 -19 0
-12 -19 0
-14 -19 0
-16 -19 0
-18 -19 0
-2 -21 0
-4 -21 0
-6 -21 0
-8 -21 0
-10 -21 0
